NAME : ClusterId_104 
COMMENT : (Gillet and Johnson) 
TYPE : CVRP 
DIMENSION : 23 
EDGE_WEIGHT_TYPE : EUC_2D 
CAPACITY : 100 
NODE_COORD_SECTION 
104 35 50 
63 27 69 
90 31 67 
32 35 69 
62 24 58 
10 30 60 
88 26 52 
65 62 77 
66 49 73 
20 45 65 
31 31 52 
30 40 60 
70 37 56 
71 57 68 
27 35 40 
35 63 65 
69 37 47 
51 49 58 
1 41 49 
9 55 60 
28 41 37 
81 55 54 
33 53 52 
DEMAND_SECTION 
104 4370
63 10
90 3
32 23
62 19
10 16
88 9
65 20
66 25
20 9
31 27
30 21
70 5
71 15
27 16
35 8
69 6
51 10
1 10
9 16
28 16
81 26
33 11
DEPOT_SECTION 
104
 -1
EOF